%%%mzn-stat: initTime=0.062023455
%%%mzn-stat: objective=143
%%%mzn-stat: nodes=1246806
%%%mzn-stat: restarts=755
%%%mzn-stat: peakDepth=1205
%%%mzn-stat: solveTime=852.391600916
%%%mzn-stat: variables=4257
%%%mzn-stat: propagators=3759
%%%mzn-stat: failures=324910
%%%mzn-stat: propagations=44133936
%%%mzn-stat: nogoods=324910
%%%mzn-stat: AverageConflictSize=225.0028223200271
%%%mzn-stat: NumUnitNogoodsLearned=141
%%%mzn-stat: AverageLearnedNogoodLength=281.0782308947093
%%%mzn-stat: AverageBacktrackAmount=0
%%%mzn-stat: AverageLbd=58.066763103628695
%%%mzn-stat-end
maxleg = 143;
succ = array1d(1..150,[64, 77, 94, 58, 103, 87, 121, 109, 114, 24, 20, 30, 78, 131, 106, 44, 81, 9, 73, 127, 144, 2, 133, 129, 84, 52, 148, 98, 108, 28, 90, 4, 75, 19, 149, 132, 66, 70, 21, 55, 142, 35, 6, 141, 111, 34, 110, 112, 37, 147, 119, 16, 128, 10, 8, 101, 47, 79, 138, 42, 130, 102, 41, 140, 97, 68, 15, 36, 95, 62, 57, 85, 33, 137, 59, 26, 11, 12, 1, 25, 116, 139, 45, 56, 54, 3, 74, 99, 7, 91, 96, 150, 17, 5, 27, 61, 118, 67, 50, 14, 113, 32, 38, 145, 48, 86, 146, 126, 72, 115, 89, 29, 122, 39, 69, 107, 13, 46, 117, 93, 143, 31, 88, 92, 76, 82, 134, 65, 18, 100, 60, 80, 40, 104, 105, 83, 49, 124, 123, 136, 43, 22, 120, 71, 23, 63, 53, 125, 135, 51]);
% time elapsed: 855.24 s
----------
==========
% time elapsed: 855.24 s
%%%mzn-stat: initTime=0.062023455
%%%mzn-stat: objective=143
%%%mzn-stat: nodes=1246806
%%%mzn-stat: restarts=755
%%%mzn-stat: peakDepth=1205
%%%mzn-stat: solveTime=852.39160606
%%%mzn-stat: variables=4257
%%%mzn-stat: propagators=3759
%%%mzn-stat: failures=324910
%%%mzn-stat: propagations=44133936
%%%mzn-stat: nogoods=324910
%%%mzn-stat: AverageConflictSize=225.0028223200271
%%%mzn-stat: NumUnitNogoodsLearned=141
%%%mzn-stat: AverageLearnedNogoodLength=281.0782308947093
%%%mzn-stat: AverageBacktrackAmount=0
%%%mzn-stat: AverageLbd=58.066763103628695
%%%mzn-stat-end
